p cnf 120 897
-1 -2 -19 0
-1 2 19 0
1 -2 19 0
1 2 -19 0
1 2 20 0
-1 -20 0
-2 -20 0
-2 20 -21 0
-2 -20 21 0
2 20 21 0
2 -20 -21 0
2 -20 22 0
-2 -22 0
20 -22 0
-1 22 -23 0
-1 -22 23 0
1 22 23 0
1 -22 -23 0
1 -22 24 0
-1 -24 0
22 -24 0
-3 -4 -25 0
-3 4 25 0
3 -4 25 0
3 4 -25 0
3 4 26 0
-3 -26 0
-4 -26 0
-3 26 -27 0
-3 -26 27 0
3 26 27 0
3 -26 -27 0
3 -26 28 0
-3 -28 0
26 -28 0
-5 -6 -29 0
-5 6 29 0
5 -6 29 0
5 6 -29 0
5 6 30 0
-5 -30 0
-6 -30 0
-5 30 -31 0
-5 -30 31 0
5 30 31 0
5 -30 -31 0
5 -30 32 0
-5 -32 0
30 -32 0
-7 8 -33 0
-7 -8 33 0
7 8 33 0
7 -8 -33 0
7 -8 34 0
-7 -34 0
8 -34 0
-9 -10 -35 0
-9 10 35 0
9 -10 35 0
9 10 -35 0
9 10 36 0
-9 -36 0
-10 -36 0
11 12 -37 0
11 -12 37 0
-11 12 37 0
-11 -12 -37 0
-11 -12 38 0
11 -38 0
12 -38 0
13 14 -39 0
13 -14 39 0
-13 14 39 0
-13 -14 -39 0
-13 -14 40 0
13 -40 0
14 -40 0
14 40 -41 0
14 -40 41 0
-14 40 41 0
-14 -40 -41 0
-14 -40 42 0
14 -42 0
40 -42 0
15 16 -43 0
15 -16 43 0
-15 16 43 0
-15 -16 -43 0
-15 -16 44 0
15 -44 0
16 -44 0
16 44 -45 0
16 -44 45 0
-16 44 45 0
-16 -44 -45 0
-16 -44 46 0
16 -46 0
44 -46 0
17 18 -47 0
17 -18 47 0
-17 18 47 0
-17 -18 -47 0
-17 -18 48 0
17 -48 0
18 -48 0
17 48 -49 0
17 -48 49 0
-17 48 49 0
-17 -48 -49 0
-17 -48 50 0
17 -50 0
48 -50 0
18 50 -51 0
18 -50 51 0
-18 50 51 0
-18 -50 -51 0
-18 -50 52 0
18 -52 0
50 -52 0
19 25 -53 0
19 -25 53 0
-19 25 53 0
-19 -25 -53 0
-19 -25 54 0
19 -54 0
25 -54 0
21 27 54 -55 0
21 27 -54 55 0
21 -27 54 55 0
-21 27 54 55 0
21 -27 -54 -55 0
-21 27 -54 -55 0
-21 -27 54 -55 0
-21 -27 -54 55 0
-21 -27 56 0
-21 -54 56 0
-27 -54 56 0
21 27 -56 0
21 54 -56 0
27 54 -56 0
23 28 56 -57 0
23 28 -56 57 0
23 -28 56 57 0
-23 28 56 57 0
23 -28 -56 -57 0
-23 28 -56 -57 0
-23 -28 56 -57 0
-23 -28 -56 57 0
-23 -28 58 0
-23 -56 58 0
-28 -56 58 0
23 28 -58 0
23 56 -58 0
28 56 -58 0
24 58 -59 0
24 -58 59 0
-24 58 59 0
-24 -58 -59 0
-24 -58 60 0
24 -60 0
58 -60 0
29 33 -61 0
29 -33 61 0
-29 33 61 0
-29 -33 -61 0
-29 -33 62 0
29 -62 0
33 -62 0
31 34 62 -63 0
31 34 -62 63 0
31 -34 62 63 0
-31 34 62 63 0
31 -34 -62 -63 0
-31 34 -62 -63 0
-31 -34 62 -63 0
-31 -34 -62 63 0
-31 -34 64 0
-31 -62 64 0
-34 -62 64 0
31 34 -64 0
31 62 -64 0
34 62 -64 0
32 64 -65 0
32 -64 65 0
-32 64 65 0
-32 -64 -65 0
-32 -64 66 0
32 -66 0
64 -66 0
35 37 -67 0
35 -37 67 0
-35 37 67 0
-35 -37 -67 0
-35 -37 68 0
35 -68 0
37 -68 0
36 38 68 -69 0
36 38 -68 69 0
36 -38 68 69 0
-36 38 68 69 0
36 -38 -68 -69 0
-36 38 -68 -69 0
-36 -38 68 -69 0
-36 -38 -68 69 0
-36 -38 70 0
-36 -68 70 0
-38 -68 70 0
36 38 -70 0
36 68 -70 0
38 68 -70 0
39 43 -71 0
39 -43 71 0
-39 43 71 0
-39 -43 -71 0
-39 -43 72 0
39 -72 0
43 -72 0
41 45 72 -73 0
41 45 -72 73 0
41 -45 72 73 0
-41 45 72 73 0
41 -45 -72 -73 0
-41 45 -72 -73 0
-41 -45 72 -73 0
-41 -45 -72 73 0
-41 -45 74 0
-41 -72 74 0
-45 -72 74 0
41 45 -74 0
41 72 -74 0
45 72 -74 0
42 46 74 -75 0
42 46 -74 75 0
42 -46 74 75 0
-42 46 74 75 0
42 -46 -74 -75 0
-42 46 -74 -75 0
-42 -46 74 -75 0
-42 -46 -74 75 0
-42 -46 76 0
-42 -74 76 0
-46 -74 76 0
42 46 -76 0
42 74 -76 0
46 74 -76 0
53 61 -77 0
53 -61 77 0
-53 61 77 0
-53 -61 -77 0
-53 -61 78 0
53 -78 0
61 -78 0
55 63 78 -79 0
55 63 -78 79 0
55 -63 78 79 0
-55 63 78 79 0
55 -63 -78 -79 0
-55 63 -78 -79 0
-55 -63 78 -79 0
-55 -63 -78 79 0
-55 -63 80 0
-55 -78 80 0
-63 -78 80 0
55 63 -80 0
55 78 -80 0
63 78 -80 0
57 65 80 -81 0
57 65 -80 81 0
57 -65 80 81 0
-57 65 80 81 0
57 -65 -80 -81 0
-57 65 -80 -81 0
-57 -65 80 -81 0
-57 -65 -80 81 0
-57 -65 82 0
-57 -80 82 0
-65 -80 82 0
57 65 -82 0
57 80 -82 0
65 80 -82 0
59 66 82 -83 0
59 66 -82 83 0
59 -66 82 83 0
-59 66 82 83 0
59 -66 -82 -83 0
-59 66 -82 -83 0
-59 -66 82 -83 0
-59 -66 -82 83 0
-59 -66 84 0
-59 -82 84 0
-66 -82 84 0
59 66 -84 0
59 82 -84 0
66 82 -84 0
60 84 -85 0
60 -84 85 0
-60 84 85 0
-60 -84 -85 0
-60 -84 86 0
60 -86 0
84 -86 0
67 71 -87 0
67 -71 87 0
-67 71 87 0
-67 -71 -87 0
-67 -71 88 0
67 -88 0
71 -88 0
69 73 88 -89 0
69 73 -88 89 0
69 -73 88 89 0
-69 73 88 89 0
69 -73 -88 -89 0
-69 73 -88 -89 0
-69 -73 88 -89 0
-69 -73 -88 89 0
-69 -73 90 0
-69 -88 90 0
-73 -88 90 0
69 73 -90 0
69 88 -90 0
73 88 -90 0
70 75 90 -91 0
70 75 -90 91 0
70 -75 90 91 0
-70 75 90 91 0
70 -75 -90 -91 0
-70 75 -90 -91 0
-70 -75 90 -91 0
-70 -75 -90 91 0
-70 -75 92 0
-70 -90 92 0
-75 -90 92 0
70 75 -92 0
70 90 -92 0
75 90 -92 0
76 92 -93 0
76 -92 93 0
-76 92 93 0
-76 -92 -93 0
-76 -92 94 0
76 -94 0
92 -94 0
77 87 -95 0
77 -87 95 0
-77 87 95 0
-77 -87 -95 0
-77 -87 96 0
77 -96 0
87 -96 0
79 89 96 -97 0
79 89 -96 97 0
79 -89 96 97 0
-79 89 96 97 0
79 -89 -96 -97 0
-79 89 -96 -97 0
-79 -89 96 -97 0
-79 -89 -96 97 0
-79 -89 98 0
-79 -96 98 0
-89 -96 98 0
79 89 -98 0
79 96 -98 0
89 96 -98 0
81 91 98 -99 0
81 91 -98 99 0
81 -91 98 99 0
-81 91 98 99 0
81 -91 -98 -99 0
-81 91 -98 -99 0
-81 -91 98 -99 0
-81 -91 -98 99 0
-81 -91 100 0
-81 -98 100 0
-91 -98 100 0
81 91 -100 0
81 98 -100 0
91 98 -100 0
83 93 100 -101 0
83 93 -100 101 0
83 -93 100 101 0
-83 93 100 101 0
83 -93 -100 -101 0
-83 93 -100 -101 0
-83 -93 100 -101 0
-83 -93 -100 101 0
-83 -93 102 0
-83 -100 102 0
-93 -100 102 0
83 93 -102 0
83 100 -102 0
93 100 -102 0
85 94 102 -103 0
85 94 -102 103 0
85 -94 102 103 0
-85 94 102 103 0
85 -94 -102 -103 0
-85 94 -102 -103 0
-85 -94 102 -103 0
-85 -94 -102 103 0
-85 -94 104 0
-85 -102 104 0
-94 -102 104 0
85 94 -104 0
85 102 -104 0
94 102 -104 0
86 104 -105 0
86 -104 105 0
-86 104 105 0
-86 -104 -105 0
-86 -104 106 0
86 -106 0
104 -106 0
95 47 -107 0
95 -47 107 0
-95 47 107 0
-95 -47 -107 0
-95 -47 108 0
95 -108 0
47 -108 0
97 49 108 -109 0
97 49 -108 109 0
97 -49 108 109 0
-97 49 108 109 0
97 -49 -108 -109 0
-97 49 -108 -109 0
-97 -49 108 -109 0
-97 -49 -108 109 0
-97 -49 110 0
-97 -108 110 0
-49 -108 110 0
97 49 -110 0
97 108 -110 0
49 108 -110 0
99 51 110 -111 0
99 51 -110 111 0
99 -51 110 111 0
-99 51 110 111 0
99 -51 -110 -111 0
-99 51 -110 -111 0
-99 -51 110 -111 0
-99 -51 -110 111 0
-99 -51 112 0
-99 -110 112 0
-51 -110 112 0
99 51 -112 0
99 110 -112 0
51 110 -112 0
101 52 112 -113 0
101 52 -112 113 0
101 -52 112 113 0
-101 52 112 113 0
101 -52 -112 -113 0
-101 52 -112 -113 0
-101 -52 112 -113 0
-101 -52 -112 113 0
-101 -52 114 0
-101 -112 114 0
-52 -112 114 0
101 52 -114 0
101 112 -114 0
52 112 -114 0
103 114 -115 0
103 -114 115 0
-103 114 115 0
-103 -114 -115 0
-103 -114 116 0
103 -116 0
114 -116 0
105 116 -117 0
105 -116 117 0
-105 116 117 0
-105 -116 -117 0
-105 -116 118 0
105 -118 0
116 -118 0
106 118 -119 0
106 -118 119 0
-106 118 119 0
-106 -118 -119 0
-106 -118 120 0
106 -120 0
118 -120 0
-107 -109 -115 0
-111 -115 0
-113 -115 0
-117 0
-119 0
-120 0
1 2 3 4 5 6 7 8 9 10 11 12 13 14 15 16 17 18 0
-1 -1 2 0
-1 -1 3 0
-1 -1 5 0
-1 -2 4 0
-1 -2 7 0
-1 -2 9 0
-1 -2 6 0
-1 -3 6 0
-1 -3 10 0
-1 -3 4 0
-1 -3 7 0
-1 -4 8 0
-1 -4 13 0
-1 -4 11 0
-1 -5 9 0
-1 -5 7 0
-1 -5 10 0
-1 -5 6 0
-1 -6 11 0
-1 -6 15 0
-1 -6 12 0
-1 -6 8 0
-1 -7 12 0
-1 -7 15 0
-1 -7 8 0
-1 -7 13 0
-1 -8 14 0
-1 -8 16 0
-1 -9 13 0
-1 -9 12 0
-1 -9 11 0
-1 -10 15 0
-1 -10 11 0
-1 -10 13 0
-1 -11 16 0
-1 -11 17 0
-1 -11 14 0
-1 -12 17 0
-1 -12 14 0
-1 -13 17 0
-1 -13 14 0
-1 -13 16 0
-1 -14 18 0
-1 -15 16 0
-1 -15 17 0
-1 -16 18 0
-1 -17 18 0
-2 -2 4 0
-2 -2 8 0
-2 -2 12 0
-2 -3 4 0
-2 -3 6 0
-2 -3 11 0
-2 -3 7 0
-2 -3 15 0
-2 -3 13 0
-2 -4 8 0
-2 -4 14 0
-2 -4 17 0
-2 -5 6 0
-2 -5 9 0
-2 -5 7 0
-2 -5 13 0
-2 -5 8 0
-2 -5 11 0
-2 -6 11 0
-2 -6 16 0
-2 -6 12 0
-2 -6 8 0
-2 -6 17 0
-2 -7 8 0
-2 -7 12 0
-2 -7 17 0
-2 -7 13 0
-2 -7 16 0
-2 -8 14 0
-2 -8 18 0
-2 -9 12 0
-2 -9 13 0
-2 -9 11 0
-2 -9 14 0
-2 -10 11 0
-2 -10 13 0
-2 -10 15 0
-2 -10 16 0
-2 -11 16 0
-2 -11 17 0
-2 -11 18 0
-2 -11 14 0
-2 -12 17 0
-2 -12 14 0
-2 -12 18 0
-2 -13 14 0
-2 -13 17 0
-2 -13 16 0
-2 -13 18 0
-2 -14 18 0
-2 -15 16 0
-2 -15 17 0
-2 -16 18 0
-2 -17 18 0
-3 -3 8 0
-3 -3 10 0
-3 -3 15 0
-3 -4 8 0
-3 -4 13 0
-3 -4 16 0
-3 -4 11 0
-3 -5 7 0
-3 -5 10 0
-3 -5 11 0
-3 -5 13 0
-3 -5 6 0
-3 -5 12 0
-3 -6 8 0
-3 -6 11 0
-3 -6 15 0
-3 -6 17 0
-3 -6 14 0
-3 -7 14 0
-3 -7 13 0
-3 -7 15 0
-3 -7 8 0
-3 -7 17 0
-3 -8 14 0
-3 -8 16 0
-3 -8 18 0
-3 -9 11 0
-3 -9 13 0
-3 -9 17 0
-3 -9 12 0
-3 -10 15 0
-3 -10 16 0
-3 -10 14 0
-3 -11 16 0
-3 -11 14 0
-3 -11 17 0
-3 -11 18 0
-3 -12 14 0
-3 -12 17 0
-3 -13 18 0
-3 -13 14 0
-3 -13 16 0
-3 -13 17 0
-3 -14 18 0
-3 -15 16 0
-3 -15 18 0
-3 -16 18 0
-3 -17 18 0
-4 -4 8 0
-4 -4 14 0
-4 -4 18 0
-4 -5 8 0
-4 -5 11 0
-4 -5 13 0
-4 -5 14 0
-4 -6 8 0
-4 -6 11 0
-4 -6 16 0
-4 -6 17 0
-4 -6 18 0
-4 -6 14 0
-4 -7 8 0
-4 -7 14 0
-4 -7 13 0
-4 -7 17 0
-4 -7 16 0
-4 -7 18 0
-4 -8 14 0
-4 -8 18 0
-4 -9 11 0
-4 -9 14 0
-4 -9 13 0
-4 -9 17 0
-4 -10 11 0
-4 -10 13 0
-4 -10 16 0
-4 -10 14 0
-4 -11 16 0
-4 -11 18 0
-4 -11 14 0
-4 -12 14 0
-4 -12 17 0
-4 -12 18 0
-4 -13 14 0
-4 -13 18 0
-4 -13 16 0
-4 -14 18 0
-4 -15 16 0
-4 -15 17 0
-4 -15 18 0
-4 -16 18 0
-4 -17 18 0
-5 -5 9 0
-5 -5 12 0
-5 -5 15 0
-5 -6 14 0
-5 -6 15 0
-5 -6 11 0
-5 -6 12 0
-5 -6 16 0
-5 -7 12 0
-5 -7 15 0
-5 -7 16 0
-5 -7 14 0
-5 -7 13 0
-5 -8 14 0
-5 -8 16 0
-5 -9 12 0
-5 -9 16 0
-5 -9 17 0
-5 -10 13 0
-5 -10 15 0
-5 -10 11 0
-5 -10 17 0
-5 -11 14 0
-5 -11 16 0
-5 -11 17 0
-5 -11 18 0
-5 -12 17 0
-5 -12 18 0
-5 -13 16 0
-5 -13 17 0
-5 -13 14 0
-5 -13 18 0
-5 -14 18 0
-5 -15 16 0
-5 -15 17 0
-5 -15 18 0
-5 -16 18 0
-5 -17 18 0
-6 -6 14 0
-6 -6 16 0
-6 -6 17 0
-6 -7 8 0
-6 -7 12 0
-6 -7 15 0
-6 -7 18 0
-6 -7 14 0
-6 -7 17 0
-6 -7 16 0
-6 -8 14 0
-6 -8 18 0
-6 -8 16 0
-6 -9 12 0
-6 -9 16 0
-6 -9 17 0
-6 -9 11 0
-6 -9 14 0
-6 -9 18 0
-6 -10 14 0
-6 -10 16 0
-6 -10 15 0
-6 -10 11 0
-6 -10 17 0
-6 -10 18 0
-6 -11 14 0
-6 -11 16 0
-6 -11 17 0
-6 -11 18 0
-6 -12 17 0
-6 -12 18 0
-6 -12 14 0
-6 -13 14 0
-6 -13 16 0
-6 -13 17 0
-6 -14 18 0
-6 -15 16 0
-6 -15 18 0
-6 -15 17 0
-6 -16 18 0
-6 -17 18 0
-7 -7 14 0
-7 -7 16 0
-7 -7 17 0
-7 -8 14 0
-7 -8 16 0
-7 -8 18 0
-7 -9 14 0
-7 -9 13 0
-7 -9 16 0
-7 -9 18 0
-7 -9 12 0
-7 -9 17 0
-7 -10 13 0
-7 -10 15 0
-7 -10 16 0
-7 -10 14 0
-7 -10 18 0
-7 -10 17 0
-7 -11 14 0
-7 -11 16 0
-7 -11 17 0
-7 -12 14 0
-7 -12 18 0
-7 -12 17 0
-7 -13 16 0
-7 -13 18 0
-7 -13 14 0
-7 -13 17 0
-7 -14 18 0
-7 -15 16 0
-7 -15 17 0
-7 -15 18 0
-7 -16 18 0
-7 -17 18 0
-8 -8 14 0
-8 -8 18 0
-8 -9 14 0
-8 -9 16 0
-8 -9 18 0
-8 -10 14 0
-8 -10 16 0
-8 -10 18 0
-8 -11 14 0
-8 -11 16 0
-8 -11 18 0
-8 -12 14 0
-8 -12 18 0
-8 -13 14 0
-8 -13 16 0
-8 -13 18 0
-8 -14 18 0
-8 -15 16 0
-8 -15 18 0
-8 -16 18 0
-8 -17 18 0
-9 -9 12 0
-9 -9 17 0
-9 -9 18 0
-9 -10 11 0
-9 -10 17 0
-9 -10 13 0
-9 -10 16 0
-9 -11 18 0
-9 -11 17 0
-9 -11 14 0
-9 -12 17 0
-9 -12 18 0
-9 -13 14 0
-9 -13 17 0
-9 -13 18 0
-9 -14 18 0
-9 -15 17 0
-9 -15 18 0
-9 -15 16 0
-9 -16 18 0
-9 -17 18 0
-10 -10 15 0
-10 -10 16 0
-10 -10 18 0
-10 -11 18 0
-10 -11 16 0
-10 -11 17 0
-10 -12 14 0
-10 -12 17 0
-10 -12 18 0
-10 -13 17 0
-10 -13 18 0
-10 -13 16 0
-10 -14 18 0
-10 -15 18 0
-10 -15 16 0
-10 -16 18 0
-10 -17 18 0
-11 -11 18 0
-11 -12 14 0
-11 -12 17 0
-11 -12 18 0
-11 -13 14 0
-11 -13 17 0
-11 -13 18 0
-11 -13 16 0
-11 -14 18 0
-11 -15 18 0
-11 -15 17 0
-11 -15 16 0
-11 -16 18 0
-11 -17 18 0
-12 -12 17 0
-12 -12 18 0
-12 -13 14 0
-12 -13 18 0
-12 -13 17 0
-12 -14 18 0
-12 -15 17 0
-12 -15 18 0
-12 -16 18 0
-12 -17 18 0
-13 -13 18 0
-13 -14 18 0
-13 -15 18 0
-13 -15 16 0
-13 -15 17 0
-13 -16 18 0
-13 -17 18 0
-14 -14 18 0
-14 -15 18 0
-14 -16 18 0
-14 -17 18 0
-15 -15 16 0
-15 -15 18 0
-15 -16 18 0
-15 -17 18 0
-16 -16 18 0
-16 -17 18 0
-17 -17 18 0
